generators/3_3.param
language ESSENCE' 1.0
letting input=[3,3,2]
letting output=[1,4,2]
letting MAX_OPS=12
letting num_registers=0